NAME : /home/nina/Documents/cours/Poly/MTH6412B/mth6412b-starter-code-master/tsp/tours/tour_solutiontest.tour
COMMENT : LENGHT = 857429.0
TYPE : TOUR
DIMENSION : 100
TOUR_SECTION
2
63
33
97
26
62
46
34
56
87
20
43
92
90
99
88
44
98
64
80
67
59
21
91
11
73
74
78
96
72
76
71
6
40
57
30
9
7
13
32
89
48
31
14
28
55
45
58
49
8
50
15
42
39
94
60
81
68
93
47
70
23
18
22
24
101
37
86
29
53
12
4
77
5
35
69
83
17
52
79
16
84
66
3
95
27
36
54
19
38
85
75
65
10
41
51
82
25
100
61
-1
EOF
